3 32 1 10
6 18 5 13 6 18 6 20 20 13 16 15 18 5 15 10 7 19 19 10 10 10 4 7 15 17 6 14 17 14 15 14 
2.32 0.55 3.68 5.9 5.72 6.55 5.34 7.33 4.21 0.62 1.71 4.07 2.6 1.16 5.56 1.84 3.66 0.74 5.74 4.3 5.47 7.15 2.85 1.22 0.79 4.02 5.45 4.98 2.84 7.6 4.52 4.98 
4 4 4 4 4 4 4 4 4 4 4 4 4 4 4 4 4 4 4 4 4 4 4 4 4 4 4 4 4 4 4 4 
1 4.85 1.17 1.22 3.39 3.09 5.36 3.48 0.94 3.52 6.2 4.09 6.81 2.93 5.38 5.64 6 6.33 1.91 1.8 0.8 1.82 2.63 7.83 1 0.22 3.33 4.26 6.09 0.51 2.25 0.86 
1 1 1 1 1 1 1 1 1 1 1 1 1 1 1 1 1 1 1 1 1 1 1 1 1 1 1 1 1 1 1 1 
1 1 1 1 1 1 1 1 1 1 1 1 1 1 1 1 1 1 1 1 1 1 1 1 1 1 1 1 1 1 1 1 
1 1 1 1 1 1 1 1 1 1 1 1 1 1 1 1 1 1 1 1 1 1 1 1 1 1 1 1 1 1 1 1 
0.01 0.01 0.01 0.01 0.01 0.01 0.01 0.01 0.01 0.01 0.01 0.01 0.01 0.01 0.01 0.01 0.01 0.01 0.01 0.01 0.01 0.01 0.01 0.01 0.01 0.01 0.01 0.01 0.01 0.01 0.01 0.01 
0.02 0.02 0.02 0.02 0.02 0.02 0.02 0.02 0.02 0.02 0.02 0.02 0.02 0.02 0.02 0.02 0.02 0.02 0.02 0.02 0.02 0.02 0.02 0.02 0.02 0.02 0.02 0.02 0.02 0.02 0.02 0.02 
1 1 1 1 1 1 1 1 1 1 1 1 1 1 1 1 1 1 1 1 1 1 1 1 1 1 1 1 1 1 1 1 
